10	5
0	2	2	1
1	1	6
2	2	4	3
3	1	7
4	1	5
5	1	10
6	1	4
7	1	8
8	1	9
9	1	11
10	1	11
11	0
0	0	0	0	0	0	0
1	7	0	2	5	3	5
2	1	4	0	0	2	5
3	5	0	1	0	0	0
4	7	2	5	5	2	0
5	1	5	2	2	4	3
6	9	5	3	2	1	3
7	4	1	3	3	5	2
8	10	4	5	2	5	1
9	2	0	4	2	0	4
10	2	5	3	0	4	0
11	0	0	0	0	0	0
6	6	5	5	6
